Version identifier: 20.1.0.0 | 2020-11-10 | 9bedb6d68
CPXPARAM_Threads                                 1
CPXPARAM_TimeLimit                               7200
CPXPARAM_MIP_Tolerances_MIPGap                   0
Generic callback                                 0x60
1 of 1 MIP starts provided solutions.
MIP start 'm1' defined initial solution with objective 890.1266.
Tried aggregator 1 time.
Reduced MIP has 1 rows, 801 columns, and 800 nonzeros.
Reduced MIP has 800 binaries, 0 generals, 0 SOSs, and 0 indicators.
Presolve time = 0.00 sec. (0.24 ticks)
Probing time = 0.00 sec. (0.09 ticks)
Tried aggregator 1 time.
Reduced MIP has 1 rows, 801 columns, and 800 nonzeros.
Reduced MIP has 800 binaries, 0 generals, 0 SOSs, and 0 indicators.
Presolve time = 0.00 sec. (0.25 ticks)
Probing time = 0.00 sec. (0.09 ticks)
MIP emphasis: balance optimality and feasibility.
MIP search method: dynamic search.
Parallel mode: none, using 1 thread.
Root relaxation solution time = 0.00 sec. (0.17 ticks)

        Nodes                                         Cuts/
   Node  Left     Objective  IInf  Best Integer    Best Bound    ItCnt     Gap

*     0+    0                          890.1266     2716.0000           205.13%
      0     0     1156.3285     2      890.1266     2716.0000        0  205.13%
      0     0     1051.2232     4      890.1266 UserPurge2: 1       15   18.10%
      0     0     1030.8017     5      890.1266 UserPurge2: 1       23   15.80%
      0     0     1006.7927     3      890.1266 UserPurge2: 1       39   13.11%
      0     0      970.7670     3      890.1266 UserPurge2: 1       55    9.06%
      0     0      963.6623     4      890.1266 UserPurge2: 1       58    8.26%

Repeating presolve.
Tried aggregator 1 time.
MIP Presolve eliminated 0 rows and 205 columns.
Reduced MIP has 1 rows, 596 columns, and 595 nonzeros.
Reduced MIP has 595 binaries, 0 generals, 0 SOSs, and 0 indicators.
Presolve time = 0.00 sec. (0.22 ticks)
Probing time = 0.00 sec. (0.06 ticks)
Tried aggregator 1 time.
Reduced MIP has 1 rows, 596 columns, and 595 nonzeros.
Reduced MIP has 595 binaries, 0 generals, 0 SOSs, and 0 indicators.
Presolve time = 0.00 sec. (0.18 ticks)
Represolve time = 0.00 sec. (2.14 ticks)
Probing time = 0.00 sec. (0.06 ticks)
MIP emphasis: balance optimality and feasibility.
MIP search method: dynamic search.
Parallel mode: none, using 1 thread.
Root relaxation solution time = 0.00 sec. (0.83 ticks)

        Nodes                                         Cuts/
   Node  Left     Objective  IInf  Best Integer    Best Bound    ItCnt     Gap

*     0+    0                          890.1266      963.6623             8.26%
      0     0      963.5591     5      890.1266      963.5591       76    8.25%
      0     0      947.1336     4      890.1266 UserPurge2: 1       87    6.40%
      0     0      940.2526     4      890.1266 UserPurge2: 1       95    5.63%
      0     0      937.2593     5      890.1266 UserPurge2: 1      104    5.30%
      0     0      930.3566     5      890.1266 UserPurge2: 1      120    4.52%
      0     2      930.3566     5      890.1266      930.3445      120    4.52%
Elapsed time = 11.41 sec. (25.89 ticks, tree = 0.01 MB, solutions = 1)
      2     4      896.5093     6      890.1266      899.1750     2961    1.02%
*    10+    2                          890.4690      896.5068             0.68%
     12     3      895.9688    14      890.4690      896.4697     3889    0.67%
     14     3      895.9467    10      890.4690      896.4697     4656    0.67%
     16     3      895.8950    10      890.4690      896.4697     5068    0.67%
     18     3      895.8064    10      890.4690      896.4697     5411    0.67%
     20     3      895.5320    16      890.4690      896.4697     6331    0.67%
     21     4      895.4571    10      890.4690      896.4697     6974    0.67%
     22     5      895.4310    10      890.4690      896.4697     7364    0.67%
     24     5      895.3838    17      890.4690      896.4697     8077    0.67%
     30     5      895.1420    15      890.4690      896.4697     9946    0.67%
Elapsed time = 538.64 sec. (8547.75 ticks, tree = 0.02 MB, solutions = 2)
     32     5      895.1250    11      890.4690      896.4697    10650    0.67%
     36     5      894.9147    17      890.4690      896.4697    12382    0.67%
     37     6      894.7877    16      890.4690      896.4697    13641    0.67%
     39     6      894.7171    10      890.4690      896.4697    14546    0.67%
     41     6      894.5827     8      890.4690      896.4697    15200    0.67%
     42     7      894.4743     8      890.4690      896.4697    16112    0.67%
*    44     7      integral     0      891.1902      896.4697    16259    0.59%
     46     5        cutoff            891.1902      895.5315    16397    0.49%
     50     3      894.3764    17      891.1902      894.4679    17152    0.37%
     51     4      894.3247     9      891.1902      894.4679    17809    0.37%
     53     6      894.0258     9      891.1902      894.4679    19411    0.37%
Elapsed time = 953.17 sec. (35155.22 ticks, tree = 0.12 MB, solutions = 3)
     54     7      893.4933    20      891.1902      894.4679    20944    0.37%
     55     8      893.3281    13      891.1902      894.4679    21668    0.37%
     56     9      893.2393    17      891.1902      894.4679    22210    0.37%
     57    10      893.1601     8      891.1902      894.4679    22926    0.37%
     58    11      893.0615    10      891.1902      894.4679    23443    0.37%
     59    12      892.8147    13      891.1902      894.4679    24532    0.37%
     60    13      892.7619    20      891.1902      894.4679    25433    0.37%
     61    14      892.6719    13      891.1902      894.4679    26199    0.37%
     63    14      892.6373    14      891.1902      894.4679    26734    0.37%
     64    15      892.5418    10      891.1902      894.4679    27532    0.37%
Elapsed time = 1357.96 sec. (72759.73 ticks, tree = 0.49 MB, solutions = 3)
     66    15      892.2498    17      891.1902      894.4679    28239    0.37%
     67    16      892.2025    12      891.1902      894.4679    28871    0.37%
     68    17      891.9994    10      891.1902      894.4679    29560    0.37%
     69    18      891.8830    13      891.1902      894.4679    30260    0.37%
     70    19      891.7837    12      891.1902      894.4679    30629    0.37%
     75    16      891.6325     2      891.1902      894.1873    31007    0.34%
*    77    15      integral     0      891.4633      894.1873    31017    0.31%
*    79    14      integral     0      891.5492      894.0222    31118    0.28%
     84     9        cutoff            891.5492      893.0541    31455    0.17%

User cuts applied:  7810

Root node processing (before b&c):
  Real time             =   11.42 sec. (39.29 ticks)
Sequential b&c:
  Real time             = 1621.25 sec. (96263.89 ticks)
                          ------------
Total (root+branch&cut) = 1632.66 sec. (96303.18 ticks)
@Parameters: 
is_S_cut                                true
is_add_all_yinF                         true
is_start_value                          true
is_usercut                              true
is_visualization                        false
uc_only_rootnode                        false

data                                    Qi
fn                                      data/Qi/instance_500_800.csv
mode                                    NewSubmodular
solver                                  cplex

p                                       2
r                                       5

EPS                                     1.0e-06
EPS_vio                                 1.0e-04
beta                                    0.10
gap                                     0.00
nodelimit                               Inf
timelimit                               7200.00


@PrintInfos
ItCnt: 31678
Current gap: 0.00 %
Termination Status: OPTIMAL
Primal Status: FEASIBLE_POINT
Solve Time: 1632.66 sec
Objective Value: 891.549191
Number of Nodes:     94

CutInfo: [phase] num / time (sec) 
ZLP             [phase1]     0 / 0.00 [rLC]     0 / 0.00 [rUC]     0 / 0.00 [sLC]     0 / 0.00 [sUC]     0 / 0.00 
OldSubmodular   [phase1]     0 / 0.00 [rLC]     0 / 0.00 [rUC]     0 / 0.00 [sLC]     0 / 0.00 [sUC]     0 / 0.00 
NewSubmodular   [phase1]     0 / 0.00 [rLC]    28 / 7.64 [rUC]    31 / 1.72 [sLC]     2 / 6.83 [sUC]  7800 / 1529.77 
PMP             [phase1]     0 / 0.00 [rLC]     5 / 5.17 [rUC]     0 / 0.00 [sLC]     6 / 6.67 [sUC]   102 / 155.12 
Separation Round: [phase1] 0  [rLC] 18  [rUC] 11  [sLC] 6  [sUC] 2039
Root Best Bound 899.174961
Root Best Integer: 890.126593
Best Bound: 891.549191
Best Integer: 891.549191

